\ LP format - for model browsing. Use MPS format to capture full model detail.
Maximize
  46.62650602409638 z1 + 23.3132530120482 z2 + 40.40963855421688 z3
   + 13.9879518072289 z4 + 24.86746987951807 z5 + 23 z6
   + 18.65060240963856 z7 + 10.87951807228915 z8 + 17.09638554216868 z9
   + 32.63855421686748 z10 + 12.43373493975904 z11 + 45.3855421686747 z12
   + 19.61445783132532 z13 + 31.0843373493976 z14 + 41 z15
   + 38.85542168674699 z16 + 35.74698795180723 z17 + 41 z18 + 48 z19
   + 40 z20
Subject To
 constraint1: 47 z1 + 24 z2 + 41 z3 + 14 z4 + 26 z5 + 23 z6 + 19 z7 + 11 z8
   + 18 z9 + 33 z10 + 13 z11 + 46 z12 + 20 z13 + 32 z14 + 41 z15 + 39 z16
   + 36 z17 + 41 z18 + 48 z19 + 40 z20 <= 200
 constraints2_6_&_12: z6 - z12 = 0
 constraints2_13_&_15: z13 - z15 = 0
 constraints2_18_&_19: z18 - z19 = 0
 constraints2_19_&_20: z19 - z20 = 0
 constraints3_1_|_18: z1 + z18 <= 1
 constraints3_2_|_17: z2 + z17 <= 1
 constraints3_3_|_18: z3 + z18 <= 1
 constraints3_6_|_11: z6 + z11 <= 1
 constraints3_6_|_13: z6 + z13 <= 1
 constraints3_6_|_15: z6 + z15 <= 1
 constraints3_6_|_18: z6 + z18 <= 1
 constraints3_7_|_10: z7 + z10 <= 1
 constraints3_9_|_14: z9 + z14 <= 1
 constraints3_10_|_18: z10 + z18 <= 1
 constraints3_12_|_13: z12 + z13 <= 1
 constraints3_12_|_15: z12 + z15 <= 1
 constraints3_12_|_18: z12 + z18 <= 1
 constraints3_13_|_14: z13 + z14 <= 1
 constraints3_13_|_18: z13 + z18 <= 1
 constraints3_16_|_18: z16 + z18 <= 1
 constraints3_17_|_18: z17 + z18 <= 1
 constraints3_17_|_19: z17 + z19 <= 1
Bounds
Binaries
 z1 z2 z3 z4 z5 z6 z7 z8 z9 z10 z11 z12 z13 z14 z15 z16 z17 z18 z19 z20
End
